NAME : data_7_3_tsptw.tsptw
TYPE : TSPTW
DIMENSION : 8
EDGE_WEIGHT_TYPE : EXPLICIT
EDGE_WEIGHT_FORMAT : FULL_MATRIX
EDGE_WEIGHT_SECTION
0 3107 3174 2803 3084 2594 2520 3072
2879 0 845 604 344 749 872 517
2912 550 0 749 474 894 1017 327
2445 921 914 0 615 315 438 637
2732 469 514 457 0 603 725 185
2180 924 1107 351 684 0 173 807
2254 907 1118 368 666 73 0 789
2834 284 329 592 186 737 860 0
TIME_WINDOW_SECTION
1 0 600000
2 7200 18000
3 1800 7200
4 1800 12600
5 9000 19800
6 12600 23400
7 1800 12600
8 0 10800
DEPOT_SECTION
1
-1
EOF